NbClient = 6;
NbSites = 3;
Revenues = [
  [ 99, 64, 53 ],
  [ 45, 29, 37 ],
  [ 53, 23, 21 ],
  [ 58, 22, 55 ],
  [ 54, 87, 43 ],
  [ 15, 68, 78 ],
];

CostSite = [ 1511, 4985, 4777 ];

DemandsBase = [ 34, 15, 45, 28, 50, 49 ];
DemandsLower = [ 27, 12, 36, 22, 40, 39 ];
DemandsUpper = [ 40, 18, 54, 33, 60, 58 ];

Probabilities = [ 0.2, 0.45, 0.35 ];
Capacities = [ 242, 297, 199 ];
